p cnf 245 2016
1 2 3 4 5 6 7 0
8 9 10 11 12 13 14 0
15 16 17 18 19 20 21 0
22 23 24 25 26 27 28 0
29 30 31 32 33 34 35 0
36 37 38 39 40 41 42 0
43 44 45 46 47 48 49 0
50 51 52 53 54 55 56 0
57 58 59 60 61 62 63 0
64 65 66 67 68 69 70 0
71 72 73 74 75 76 77 0
78 79 80 81 82 83 84 0
85 86 87 88 89 90 91 0
92 93 94 95 96 97 98 0
99 100 101 102 103 104 105 0
106 107 108 109 110 111 112 0
113 114 115 116 117 118 119 0
120 121 122 123 124 125 126 0
127 128 129 130 131 132 133 0
134 135 136 137 138 139 140 0
141 142 143 144 145 146 147 0
148 149 150 151 152 153 154 0
155 156 157 158 159 160 161 0
162 163 164 165 166 167 168 0
169 170 171 172 173 174 175 0
176 177 178 179 180 181 182 0
183 184 185 186 187 188 189 0
190 191 192 193 194 195 196 0
197 198 199 200 201 202 203 0
204 205 206 207 208 209 210 0
211 212 213 214 215 216 217 0
218 219 220 221 222 223 224 0
225 226 227 228 229 230 231 0
232 233 234 235 236 237 238 0
239 240 241 242 243 244 245 0
-1 -8 0
-2 -9 0
-3 -10 0
-4 -11 0
-5 -12 0
-6 -13 0
-7 -14 0
-1 -15 0
-2 -16 0
-3 -17 0
-4 -18 0
-5 -19 0
-6 -20 0
-7 -21 0
-1 -22 0
-2 -23 0
-3 -24 0
-4 -25 0
-5 -26 0
-6 -27 0
-7 -28 0
-1 -36 0
-2 -37 0
-3 -38 0
-4 -39 0
-5 -40 0
-6 -41 0
-7 -42 0
-1 -43 0
-2 -44 0
-3 -45 0
-4 -46 0
-5 -47 0
-6 -48 0
-7 -49 0
-1 -50 0
-2 -51 0
-3 -52 0
-4 -53 0
-5 -54 0
-6 -55 0
-7 -56 0
-1 -64 0
-2 -65 0
-3 -66 0
-4 -67 0
-5 -68 0
-6 -69 0
-7 -70 0
-1 -85 0
-2 -86 0
-3 -87 0
-4 -88 0
-5 -89 0
-6 -90 0
-7 -91 0
-1 -99 0
-2 -100 0
-3 -101 0
-4 -102 0
-5 -103 0
-6 -104 0
-7 -105 0
-1 -106 0
-2 -107 0
-3 -108 0
-4 -109 0
-5 -110 0
-6 -111 0
-7 -112 0
-1 -120 0
-2 -121 0
-3 -122 0
-4 -123 0
-5 -124 0
-6 -125 0
-7 -126 0
-1 -127 0
-2 -128 0
-3 -129 0
-4 -130 0
-5 -131 0
-6 -132 0
-7 -133 0
-1 -134 0
-2 -135 0
-3 -136 0
-4 -137 0
-5 -138 0
-6 -139 0
-7 -140 0
-1 -141 0
-2 -142 0
-3 -143 0
-4 -144 0
-5 -145 0
-6 -146 0
-7 -147 0
-1 -148 0
-2 -149 0
-3 -150 0
-4 -151 0
-5 -152 0
-6 -153 0
-7 -154 0
-1 -169 0
-2 -170 0
-3 -171 0
-4 -172 0
-5 -173 0
-6 -174 0
-7 -175 0
-1 -176 0
-2 -177 0
-3 -178 0
-4 -179 0
-5 -180 0
-6 -181 0
-7 -182 0
-1 -183 0
-2 -184 0
-3 -185 0
-4 -186 0
-5 -187 0
-6 -188 0
-7 -189 0
-1 -197 0
-2 -198 0
-3 -199 0
-4 -200 0
-5 -201 0
-6 -202 0
-7 -203 0
-1 -211 0
-2 -212 0
-3 -213 0
-4 -214 0
-5 -215 0
-6 -216 0
-7 -217 0
-1 -218 0
-2 -219 0
-3 -220 0
-4 -221 0
-5 -222 0
-6 -223 0
-7 -224 0
-1 -225 0
-2 -226 0
-3 -227 0
-4 -228 0
-5 -229 0
-6 -230 0
-7 -231 0
-8 -22 0
-9 -23 0
-10 -24 0
-11 -25 0
-12 -26 0
-13 -27 0
-14 -28 0
-8 -57 0
-9 -58 0
-10 -59 0
-11 -60 0
-12 -61 0
-13 -62 0
-14 -63 0
-8 -85 0
-9 -86 0
-10 -87 0
-11 -88 0
-12 -89 0
-13 -90 0
-14 -91 0
-8 -92 0
-9 -93 0
-10 -94 0
-11 -95 0
-12 -96 0
-13 -97 0
-14 -98 0
-8 -106 0
-9 -107 0
-10 -108 0
-11 -109 0
-12 -110 0
-13 -111 0
-14 -112 0
-8 -127 0
-9 -128 0
-10 -129 0
-11 -130 0
-12 -131 0
-13 -132 0
-14 -133 0
-8 -134 0
-9 -135 0
-10 -136 0
-11 -137 0
-12 -138 0
-13 -139 0
-14 -140 0
-8 -148 0
-9 -149 0
-10 -150 0
-11 -151 0
-12 -152 0
-13 -153 0
-14 -154 0
-8 -176 0
-9 -177 0
-10 -178 0
-11 -179 0
-12 -180 0
-13 -181 0
-14 -182 0
-8 -183 0
-9 -184 0
-10 -185 0
-11 -186 0
-12 -187 0
-13 -188 0
-14 -189 0
-8 -190 0
-9 -191 0
-10 -192 0
-11 -193 0
-12 -194 0
-13 -195 0
-14 -196 0
-8 -204 0
-9 -205 0
-10 -206 0
-11 -207 0
-12 -208 0
-13 -209 0
-14 -210 0
-8 -211 0
-9 -212 0
-10 -213 0
-11 -214 0
-12 -215 0
-13 -216 0
-14 -217 0
-8 -225 0
-9 -226 0
-10 -227 0
-11 -228 0
-12 -229 0
-13 -230 0
-14 -231 0
-8 -239 0
-9 -240 0
-10 -241 0
-11 -242 0
-12 -243 0
-13 -244 0
-14 -245 0
-15 -22 0
-16 -23 0
-17 -24 0
-18 -25 0
-19 -26 0
-20 -27 0
-21 -28 0
-15 -43 0
-16 -44 0
-17 -45 0
-18 -46 0
-19 -47 0
-20 -48 0
-21 -49 0
-15 -50 0
-16 -51 0
-17 -52 0
-18 -53 0
-19 -54 0
-20 -55 0
-21 -56 0
-15 -64 0
-16 -65 0
-17 -66 0
-18 -67 0
-19 -68 0
-20 -69 0
-21 -70 0
-15 -71 0
-16 -72 0
-17 -73 0
-18 -74 0
-19 -75 0
-20 -76 0
-21 -77 0
-15 -78 0
-16 -79 0
-17 -80 0
-18 -81 0
-19 -82 0
-20 -83 0
-21 -84 0
-15 -99 0
-16 -100 0
-17 -101 0
-18 -102 0
-19 -103 0
-20 -104 0
-21 -105 0
-15 -106 0
-16 -107 0
-17 -108 0
-18 -109 0
-19 -110 0
-20 -111 0
-21 -112 0
-15 -113 0
-16 -114 0
-17 -115 0
-18 -116 0
-19 -117 0
-20 -118 0
-21 -119 0
-15 -127 0
-16 -128 0
-17 -129 0
-18 -130 0
-19 -131 0
-20 -132 0
-21 -133 0
-15 -134 0
-16 -135 0
-17 -136 0
-18 -137 0
-19 -138 0
-20 -139 0
-21 -140 0
-15 -155 0
-16 -156 0
-17 -157 0
-18 -158 0
-19 -159 0
-20 -160 0
-21 -161 0
-15 -162 0
-16 -163 0
-17 -164 0
-18 -165 0
-19 -166 0
-20 -167 0
-21 -168 0
-15 -169 0
-16 -170 0
-17 -171 0
-18 -172 0
-19 -173 0
-20 -174 0
-21 -175 0
-15 -183 0
-16 -184 0
-17 -185 0
-18 -186 0
-19 -187 0
-20 -188 0
-21 -189 0
-15 -190 0
-16 -191 0
-17 -192 0
-18 -193 0
-19 -194 0
-20 -195 0
-21 -196 0
-15 -211 0
-16 -212 0
-17 -213 0
-18 -214 0
-19 -215 0
-20 -216 0
-21 -217 0
-15 -225 0
-16 -226 0
-17 -227 0
-18 -228 0
-19 -229 0
-20 -230 0
-21 -231 0
-15 -232 0
-16 -233 0
-17 -234 0
-18 -235 0
-19 -236 0
-20 -237 0
-21 -238 0
-22 -36 0
-23 -37 0
-24 -38 0
-25 -39 0
-26 -40 0
-27 -41 0
-28 -42 0
-22 -64 0
-23 -65 0
-24 -66 0
-25 -67 0
-26 -68 0
-27 -69 0
-28 -70 0
-22 -71 0
-23 -72 0
-24 -73 0
-25 -74 0
-26 -75 0
-27 -76 0
-28 -77 0
-22 -78 0
-23 -79 0
-24 -80 0
-25 -81 0
-26 -82 0
-27 -83 0
-28 -84 0
-22 -92 0
-23 -93 0
-24 -94 0
-25 -95 0
-26 -96 0
-27 -97 0
-28 -98 0
-22 -106 0
-23 -107 0
-24 -108 0
-25 -109 0
-26 -110 0
-27 -111 0
-28 -112 0
-22 -120 0
-23 -121 0
-24 -122 0
-25 -123 0
-26 -124 0
-27 -125 0
-28 -126 0
-22 -141 0
-23 -142 0
-24 -143 0
-25 -144 0
-26 -145 0
-27 -146 0
-28 -147 0
-22 -148 0
-23 -149 0
-24 -150 0
-25 -151 0
-26 -152 0
-27 -153 0
-28 -154 0
-22 -155 0
-23 -156 0
-24 -157 0
-25 -158 0
-26 -159 0
-27 -160 0
-28 -161 0
-22 -162 0
-23 -163 0
-24 -164 0
-25 -165 0
-26 -166 0
-27 -167 0
-28 -168 0
-22 -176 0
-23 -177 0
-24 -178 0
-25 -179 0
-26 -180 0
-27 -181 0
-28 -182 0
-22 -183 0
-23 -184 0
-24 -185 0
-25 -186 0
-26 -187 0
-27 -188 0
-28 -189 0
-22 -190 0
-23 -191 0
-24 -192 0
-25 -193 0
-26 -194 0
-27 -195 0
-28 -196 0
-22 -197 0
-23 -198 0
-24 -199 0
-25 -200 0
-26 -201 0
-27 -202 0
-28 -203 0
-22 -211 0
-23 -212 0
-24 -213 0
-25 -214 0
-26 -215 0
-27 -216 0
-28 -217 0
-22 -225 0
-23 -226 0
-24 -227 0
-25 -228 0
-26 -229 0
-27 -230 0
-28 -231 0
-22 -232 0
-23 -233 0
-24 -234 0
-25 -235 0
-26 -236 0
-27 -237 0
-28 -238 0
-29 -43 0
-30 -44 0
-31 -45 0
-32 -46 0
-33 -47 0
-34 -48 0
-35 -49 0
-29 -50 0
-30 -51 0
-31 -52 0
-32 -53 0
-33 -54 0
-34 -55 0
-35 -56 0
-29 -57 0
-30 -58 0
-31 -59 0
-32 -60 0
-33 -61 0
-34 -62 0
-35 -63 0
-29 -78 0
-30 -79 0
-31 -80 0
-32 -81 0
-33 -82 0
-34 -83 0
-35 -84 0
-29 -92 0
-30 -93 0
-31 -94 0
-32 -95 0
-33 -96 0
-34 -97 0
-35 -98 0
-29 -99 0
-30 -100 0
-31 -101 0
-32 -102 0
-33 -103 0
-34 -104 0
-35 -105 0
-29 -106 0
-30 -107 0
-31 -108 0
-32 -109 0
-33 -110 0
-34 -111 0
-35 -112 0
-29 -127 0
-30 -128 0
-31 -129 0
-32 -130 0
-33 -131 0
-34 -132 0
-35 -133 0
-29 -134 0
-30 -135 0
-31 -136 0
-32 -137 0
-33 -138 0
-34 -139 0
-35 -140 0
-29 -155 0
-30 -156 0
-31 -157 0
-32 -158 0
-33 -159 0
-34 -160 0
-35 -161 0
-29 -162 0
-30 -163 0
-31 -164 0
-32 -165 0
-33 -166 0
-34 -167 0
-35 -168 0
-29 -169 0
-30 -170 0
-31 -171 0
-32 -172 0
-33 -173 0
-34 -174 0
-35 -175 0
-29 -176 0
-30 -177 0
-31 -178 0
-32 -179 0
-33 -180 0
-34 -181 0
-35 -182 0
-29 -183 0
-30 -184 0
-31 -185 0
-32 -186 0
-33 -187 0
-34 -188 0
-35 -189 0
-29 -190 0
-30 -191 0
-31 -192 0
-32 -193 0
-33 -194 0
-34 -195 0
-35 -196 0
-29 -197 0
-30 -198 0
-31 -199 0
-32 -200 0
-33 -201 0
-34 -202 0
-35 -203 0
-29 -218 0
-30 -219 0
-31 -220 0
-32 -221 0
-33 -222 0
-34 -223 0
-35 -224 0
-29 -232 0
-30 -233 0
-31 -234 0
-32 -235 0
-33 -236 0
-34 -237 0
-35 -238 0
-36 -78 0
-37 -79 0
-38 -80 0
-39 -81 0
-40 -82 0
-41 -83 0
-42 -84 0
-36 -85 0
-37 -86 0
-38 -87 0
-39 -88 0
-40 -89 0
-41 -90 0
-42 -91 0
-36 -92 0
-37 -93 0
-38 -94 0
-39 -95 0
-40 -96 0
-41 -97 0
-42 -98 0
-36 -106 0
-37 -107 0
-38 -108 0
-39 -109 0
-40 -110 0
-41 -111 0
-42 -112 0
-36 -120 0
-37 -121 0
-38 -122 0
-39 -123 0
-40 -124 0
-41 -125 0
-42 -126 0
-36 -127 0
-37 -128 0
-38 -129 0
-39 -130 0
-40 -131 0
-41 -132 0
-42 -133 0
-36 -134 0
-37 -135 0
-38 -136 0
-39 -137 0
-40 -138 0
-41 -139 0
-42 -140 0
-36 -141 0
-37 -142 0
-38 -143 0
-39 -144 0
-40 -145 0
-41 -146 0
-42 -147 0
-36 -169 0
-37 -170 0
-38 -171 0
-39 -172 0
-40 -173 0
-41 -174 0
-42 -175 0
-36 -190 0
-37 -191 0
-38 -192 0
-39 -193 0
-40 -194 0
-41 -195 0
-42 -196 0
-36 -197 0
-37 -198 0
-38 -199 0
-39 -200 0
-40 -201 0
-41 -202 0
-42 -203 0
-36 -218 0
-37 -219 0
-38 -220 0
-39 -221 0
-40 -222 0
-41 -223 0
-42 -224 0
-36 -239 0
-37 -240 0
-38 -241 0
-39 -242 0
-40 -243 0
-41 -244 0
-42 -245 0
-43 -50 0
-44 -51 0
-45 -52 0
-46 -53 0
-47 -54 0
-48 -55 0
-49 -56 0
-43 -78 0
-44 -79 0
-45 -80 0
-46 -81 0
-47 -82 0
-48 -83 0
-49 -84 0
-43 -113 0
-44 -114 0
-45 -115 0
-46 -116 0
-47 -117 0
-48 -118 0
-49 -119 0
-43 -134 0
-44 -135 0
-45 -136 0
-46 -137 0
-47 -138 0
-48 -139 0
-49 -140 0
-43 -141 0
-44 -142 0
-45 -143 0
-46 -144 0
-47 -145 0
-48 -146 0
-49 -147 0
-43 -148 0
-44 -149 0
-45 -150 0
-46 -151 0
-47 -152 0
-48 -153 0
-49 -154 0
-43 -155 0
-44 -156 0
-45 -157 0
-46 -158 0
-47 -159 0
-48 -160 0
-49 -161 0
-43 -169 0
-44 -170 0
-45 -171 0
-46 -172 0
-47 -173 0
-48 -174 0
-49 -175 0
-43 -176 0
-44 -177 0
-45 -178 0
-46 -179 0
-47 -180 0
-48 -181 0
-49 -182 0
-43 -183 0
-44 -184 0
-45 -185 0
-46 -186 0
-47 -187 0
-48 -188 0
-49 -189 0
-43 -204 0
-44 -205 0
-45 -206 0
-46 -207 0
-47 -208 0
-48 -209 0
-49 -210 0
-43 -218 0
-44 -219 0
-45 -220 0
-46 -221 0
-47 -222 0
-48 -223 0
-49 -224 0
-43 -225 0
-44 -226 0
-45 -227 0
-46 -228 0
-47 -229 0
-48 -230 0
-49 -231 0
-50 -57 0
-51 -58 0
-52 -59 0
-53 -60 0
-54 -61 0
-55 -62 0
-56 -63 0
-50 -71 0
-51 -72 0
-52 -73 0
-53 -74 0
-54 -75 0
-55 -76 0
-56 -77 0
-50 -78 0
-51 -79 0
-52 -80 0
-53 -81 0
-54 -82 0
-55 -83 0
-56 -84 0
-50 -113 0
-51 -114 0
-52 -115 0
-53 -116 0
-54 -117 0
-55 -118 0
-56 -119 0
-50 -120 0
-51 -121 0
-52 -122 0
-53 -123 0
-54 -124 0
-55 -125 0
-56 -126 0
-50 -127 0
-51 -128 0
-52 -129 0
-53 -130 0
-54 -131 0
-55 -132 0
-56 -133 0
-50 -155 0
-51 -156 0
-52 -157 0
-53 -158 0
-54 -159 0
-55 -160 0
-56 -161 0
-50 -162 0
-51 -163 0
-52 -164 0
-53 -165 0
-54 -166 0
-55 -167 0
-56 -168 0
-50 -169 0
-51 -170 0
-52 -171 0
-53 -172 0
-54 -173 0
-55 -174 0
-56 -175 0
-50 -176 0
-51 -177 0
-52 -178 0
-53 -179 0
-54 -180 0
-55 -181 0
-56 -182 0
-50 -204 0
-51 -205 0
-52 -206 0
-53 -207 0
-54 -208 0
-55 -209 0
-56 -210 0
-50 -225 0
-51 -226 0
-52 -227 0
-53 -228 0
-54 -229 0
-55 -230 0
-56 -231 0
-50 -239 0
-51 -240 0
-52 -241 0
-53 -242 0
-54 -243 0
-55 -244 0
-56 -245 0
-57 -64 0
-58 -65 0
-59 -66 0
-60 -67 0
-61 -68 0
-62 -69 0
-63 -70 0
-57 -71 0
-58 -72 0
-59 -73 0
-60 -74 0
-61 -75 0
-62 -76 0
-63 -77 0
-57 -78 0
-58 -79 0
-59 -80 0
-60 -81 0
-61 -82 0
-62 -83 0
-63 -84 0
-57 -113 0
-58 -114 0
-59 -115 0
-60 -116 0
-61 -117 0
-62 -118 0
-63 -119 0
-57 -120 0
-58 -121 0
-59 -122 0
-60 -123 0
-61 -124 0
-62 -125 0
-63 -126 0
-57 -134 0
-58 -135 0
-59 -136 0
-60 -137 0
-61 -138 0
-62 -139 0
-63 -140 0
-57 -162 0
-58 -163 0
-59 -164 0
-60 -165 0
-61 -166 0
-62 -167 0
-63 -168 0
-57 -183 0
-58 -184 0
-59 -185 0
-60 -186 0
-61 -187 0
-62 -188 0
-63 -189 0
-57 -211 0
-58 -212 0
-59 -213 0
-60 -214 0
-61 -215 0
-62 -216 0
-63 -217 0
-57 -218 0
-58 -219 0
-59 -220 0
-60 -221 0
-61 -222 0
-62 -223 0
-63 -224 0
-57 -232 0
-58 -233 0
-59 -234 0
-60 -235 0
-61 -236 0
-62 -237 0
-63 -238 0
-64 -71 0
-65 -72 0
-66 -73 0
-67 -74 0
-68 -75 0
-69 -76 0
-70 -77 0
-64 -106 0
-65 -107 0
-66 -108 0
-67 -109 0
-68 -110 0
-69 -111 0
-70 -112 0
-64 -127 0
-65 -128 0
-66 -129 0
-67 -130 0
-68 -131 0
-69 -132 0
-70 -133 0
-64 -134 0
-65 -135 0
-66 -136 0
-67 -137 0
-68 -138 0
-69 -139 0
-70 -140 0
-64 -176 0
-65 -177 0
-66 -178 0
-67 -179 0
-68 -180 0
-69 -181 0
-70 -182 0
-64 -197 0
-65 -198 0
-66 -199 0
-67 -200 0
-68 -201 0
-69 -202 0
-70 -203 0
-64 -225 0
-65 -226 0
-66 -227 0
-67 -228 0
-68 -229 0
-69 -230 0
-70 -231 0
-64 -239 0
-65 -240 0
-66 -241 0
-67 -242 0
-68 -243 0
-69 -244 0
-70 -245 0
-71 -92 0
-72 -93 0
-73 -94 0
-74 -95 0
-75 -96 0
-76 -97 0
-77 -98 0
-71 -106 0
-72 -107 0
-73 -108 0
-74 -109 0
-75 -110 0
-76 -111 0
-77 -112 0
-71 -113 0
-72 -114 0
-73 -115 0
-74 -116 0
-75 -117 0
-76 -118 0
-77 -119 0
-71 -120 0
-72 -121 0
-73 -122 0
-74 -123 0
-75 -124 0
-76 -125 0
-77 -126 0
-71 -134 0
-72 -135 0
-73 -136 0
-74 -137 0
-75 -138 0
-76 -139 0
-77 -140 0
-71 -141 0
-72 -142 0
-73 -143 0
-74 -144 0
-75 -145 0
-76 -146 0
-77 -147 0
-71 -148 0
-72 -149 0
-73 -150 0
-74 -151 0
-75 -152 0
-76 -153 0
-77 -154 0
-71 -155 0
-72 -156 0
-73 -157 0
-74 -158 0
-75 -159 0
-76 -160 0
-77 -161 0
-71 -169 0
-72 -170 0
-73 -171 0
-74 -172 0
-75 -173 0
-76 -174 0
-77 -175 0
-71 -176 0
-72 -177 0
-73 -178 0
-74 -179 0
-75 -180 0
-76 -181 0
-77 -182 0
-71 -204 0
-72 -205 0
-73 -206 0
-74 -207 0
-75 -208 0
-76 -209 0
-77 -210 0
-71 -211 0
-72 -212 0
-73 -213 0
-74 -214 0
-75 -215 0
-76 -216 0
-77 -217 0
-71 -218 0
-72 -219 0
-73 -220 0
-74 -221 0
-75 -222 0
-76 -223 0
-77 -224 0
-71 -225 0
-72 -226 0
-73 -227 0
-74 -228 0
-75 -229 0
-76 -230 0
-77 -231 0
-71 -232 0
-72 -233 0
-73 -234 0
-74 -235 0
-75 -236 0
-76 -237 0
-77 -238 0
-78 -106 0
-79 -107 0
-80 -108 0
-81 -109 0
-82 -110 0
-83 -111 0
-84 -112 0
-78 -127 0
-79 -128 0
-80 -129 0
-81 -130 0
-82 -131 0
-83 -132 0
-84 -133 0
-78 -141 0
-79 -142 0
-80 -143 0
-81 -144 0
-82 -145 0
-83 -146 0
-84 -147 0
-78 -162 0
-79 -163 0
-80 -164 0
-81 -165 0
-82 -166 0
-83 -167 0
-84 -168 0
-78 -169 0
-79 -170 0
-80 -171 0
-81 -172 0
-82 -173 0
-83 -174 0
-84 -175 0
-78 -190 0
-79 -191 0
-80 -192 0
-81 -193 0
-82 -194 0
-83 -195 0
-84 -196 0
-78 -218 0
-79 -219 0
-80 -220 0
-81 -221 0
-82 -222 0
-83 -223 0
-84 -224 0
-78 -225 0
-79 -226 0
-80 -227 0
-81 -228 0
-82 -229 0
-83 -230 0
-84 -231 0
-85 -92 0
-86 -93 0
-87 -94 0
-88 -95 0
-89 -96 0
-90 -97 0
-91 -98 0
-85 -106 0
-86 -107 0
-87 -108 0
-88 -109 0
-89 -110 0
-90 -111 0
-91 -112 0
-85 -141 0
-86 -142 0
-87 -143 0
-88 -144 0
-89 -145 0
-90 -146 0
-91 -147 0
-85 -148 0
-86 -149 0
-87 -150 0
-88 -151 0
-89 -152 0
-90 -153 0
-91 -154 0
-85 -162 0
-86 -163 0
-87 -164 0
-88 -165 0
-89 -166 0
-90 -167 0
-91 -168 0
-85 -176 0
-86 -177 0
-87 -178 0
-88 -179 0
-89 -180 0
-90 -181 0
-91 -182 0
-85 -183 0
-86 -184 0
-87 -185 0
-88 -186 0
-89 -187 0
-90 -188 0
-91 -189 0
-85 -225 0
-86 -226 0
-87 -227 0
-88 -228 0
-89 -229 0
-90 -230 0
-91 -231 0
-92 -113 0
-93 -114 0
-94 -115 0
-95 -116 0
-96 -117 0
-97 -118 0
-98 -119 0
-92 -134 0
-93 -135 0
-94 -136 0
-95 -137 0
-96 -138 0
-97 -139 0
-98 -140 0
-92 -141 0
-93 -142 0
-94 -143 0
-95 -144 0
-96 -145 0
-97 -146 0
-98 -147 0
-92 -155 0
-93 -156 0
-94 -157 0
-95 -158 0
-96 -159 0
-97 -160 0
-98 -161 0
-92 -162 0
-93 -163 0
-94 -164 0
-95 -165 0
-96 -166 0
-97 -167 0
-98 -168 0
-92 -169 0
-93 -170 0
-94 -171 0
-95 -172 0
-96 -173 0
-97 -174 0
-98 -175 0
-92 -190 0
-93 -191 0
-94 -192 0
-95 -193 0
-96 -194 0
-97 -195 0
-98 -196 0
-92 -211 0
-93 -212 0
-94 -213 0
-95 -214 0
-96 -215 0
-97 -216 0
-98 -217 0
-92 -225 0
-93 -226 0
-94 -227 0
-95 -228 0
-96 -229 0
-97 -230 0
-98 -231 0
-92 -232 0
-93 -233 0
-94 -234 0
-95 -235 0
-96 -236 0
-97 -237 0
-98 -238 0
-99 -127 0
-100 -128 0
-101 -129 0
-102 -130 0
-103 -131 0
-104 -132 0
-105 -133 0
-99 -162 0
-100 -163 0
-101 -164 0
-102 -165 0
-103 -166 0
-104 -167 0
-105 -168 0
-99 -183 0
-100 -184 0
-101 -185 0
-102 -186 0
-103 -187 0
-104 -188 0
-105 -189 0
-99 -190 0
-100 -191 0
-101 -192 0
-102 -193 0
-103 -194 0
-104 -195 0
-105 -196 0
-99 -204 0
-100 -205 0
-101 -206 0
-102 -207 0
-103 -208 0
-104 -209 0
-105 -210 0
-99 -211 0
-100 -212 0
-101 -213 0
-102 -214 0
-103 -215 0
-104 -216 0
-105 -217 0
-99 -225 0
-100 -226 0
-101 -227 0
-102 -228 0
-103 -229 0
-104 -230 0
-105 -231 0
-99 -239 0
-100 -240 0
-101 -241 0
-102 -242 0
-103 -243 0
-104 -244 0
-105 -245 0
-106 -113 0
-107 -114 0
-108 -115 0
-109 -116 0
-110 -117 0
-111 -118 0
-112 -119 0
-106 -120 0
-107 -121 0
-108 -122 0
-109 -123 0
-110 -124 0
-111 -125 0
-112 -126 0
-106 -134 0
-107 -135 0
-108 -136 0
-109 -137 0
-110 -138 0
-111 -139 0
-112 -140 0
-106 -141 0
-107 -142 0
-108 -143 0
-109 -144 0
-110 -145 0
-111 -146 0
-112 -147 0
-106 -155 0
-107 -156 0
-108 -157 0
-109 -158 0
-110 -159 0
-111 -160 0
-112 -161 0
-106 -176 0
-107 -177 0
-108 -178 0
-109 -179 0
-110 -180 0
-111 -181 0
-112 -182 0
-106 -190 0
-107 -191 0
-108 -192 0
-109 -193 0
-110 -194 0
-111 -195 0
-112 -196 0
-106 -211 0
-107 -212 0
-108 -213 0
-109 -214 0
-110 -215 0
-111 -216 0
-112 -217 0
-113 -120 0
-114 -121 0
-115 -122 0
-116 -123 0
-117 -124 0
-118 -125 0
-119 -126 0
-113 -134 0
-114 -135 0
-115 -136 0
-116 -137 0
-117 -138 0
-118 -139 0
-119 -140 0
-113 -162 0
-114 -163 0
-115 -164 0
-116 -165 0
-117 -166 0
-118 -167 0
-119 -168 0
-113 -169 0
-114 -170 0
-115 -171 0
-116 -172 0
-117 -173 0
-118 -174 0
-119 -175 0
-113 -176 0
-114 -177 0
-115 -178 0
-116 -179 0
-117 -180 0
-118 -181 0
-119 -182 0
-113 -197 0
-114 -198 0
-115 -199 0
-116 -200 0
-117 -201 0
-118 -202 0
-119 -203 0
-113 -218 0
-114 -219 0
-115 -220 0
-116 -221 0
-117 -222 0
-118 -223 0
-119 -224 0
-113 -225 0
-114 -226 0
-115 -227 0
-116 -228 0
-117 -229 0
-118 -230 0
-119 -231 0
-113 -239 0
-114 -240 0
-115 -241 0
-116 -242 0
-117 -243 0
-118 -244 0
-119 -245 0
-120 -134 0
-121 -135 0
-122 -136 0
-123 -137 0
-124 -138 0
-125 -139 0
-126 -140 0
-120 -141 0
-121 -142 0
-122 -143 0
-123 -144 0
-124 -145 0
-125 -146 0
-126 -147 0
-120 -162 0
-121 -163 0
-122 -164 0
-123 -165 0
-124 -166 0
-125 -167 0
-126 -168 0
-120 -169 0
-121 -170 0
-122 -171 0
-123 -172 0
-124 -173 0
-125 -174 0
-126 -175 0
-120 -176 0
-121 -177 0
-122 -178 0
-123 -179 0
-124 -180 0
-125 -181 0
-126 -182 0
-120 -204 0
-121 -205 0
-122 -206 0
-123 -207 0
-124 -208 0
-125 -209 0
-126 -210 0
-120 -218 0
-121 -219 0
-122 -220 0
-123 -221 0
-124 -222 0
-125 -223 0
-126 -224 0
-120 -239 0
-121 -240 0
-122 -241 0
-123 -242 0
-124 -243 0
-125 -244 0
-126 -245 0
-127 -134 0
-128 -135 0
-129 -136 0
-130 -137 0
-131 -138 0
-132 -139 0
-133 -140 0
-127 -169 0
-128 -170 0
-129 -171 0
-130 -172 0
-131 -173 0
-132 -174 0
-133 -175 0
-127 -190 0
-128 -191 0
-129 -192 0
-130 -193 0
-131 -194 0
-132 -195 0
-133 -196 0
-127 -211 0
-128 -212 0
-129 -213 0
-130 -214 0
-131 -215 0
-132 -216 0
-133 -217 0
-127 -225 0
-128 -226 0
-129 -227 0
-130 -228 0
-131 -229 0
-132 -230 0
-133 -231 0
-134 -155 0
-135 -156 0
-136 -157 0
-137 -158 0
-138 -159 0
-139 -160 0
-140 -161 0
-134 -176 0
-135 -177 0
-136 -178 0
-137 -179 0
-138 -180 0
-139 -181 0
-140 -182 0
-134 -183 0
-135 -184 0
-136 -185 0
-137 -186 0
-138 -187 0
-139 -188 0
-140 -189 0
-134 -190 0
-135 -191 0
-136 -192 0
-137 -193 0
-138 -194 0
-139 -195 0
-140 -196 0
-134 -197 0
-135 -198 0
-136 -199 0
-137 -200 0
-138 -201 0
-139 -202 0
-140 -203 0
-134 -211 0
-135 -212 0
-136 -213 0
-137 -214 0
-138 -215 0
-139 -216 0
-140 -217 0
-134 -225 0
-135 -226 0
-136 -227 0
-137 -228 0
-138 -229 0
-139 -230 0
-140 -231 0
-134 -232 0
-135 -233 0
-136 -234 0
-137 -235 0
-138 -236 0
-139 -237 0
-140 -238 0
-141 -155 0
-142 -156 0
-143 -157 0
-144 -158 0
-145 -159 0
-146 -160 0
-147 -161 0
-141 -176 0
-142 -177 0
-143 -178 0
-144 -179 0
-145 -180 0
-146 -181 0
-147 -182 0
-141 -183 0
-142 -184 0
-143 -185 0
-144 -186 0
-145 -187 0
-146 -188 0
-147 -189 0
-141 -197 0
-142 -198 0
-143 -199 0
-144 -200 0
-145 -201 0
-146 -202 0
-147 -203 0
-141 -218 0
-142 -219 0
-143 -220 0
-144 -221 0
-145 -222 0
-146 -223 0
-147 -224 0
-141 -232 0
-142 -233 0
-143 -234 0
-144 -235 0
-145 -236 0
-146 -237 0
-147 -238 0
-148 -169 0
-149 -170 0
-150 -171 0
-151 -172 0
-152 -173 0
-153 -174 0
-154 -175 0
-148 -183 0
-149 -184 0
-150 -185 0
-151 -186 0
-152 -187 0
-153 -188 0
-154 -189 0
-148 -211 0
-149 -212 0
-150 -213 0
-151 -214 0
-152 -215 0
-153 -216 0
-154 -217 0
-148 -218 0
-149 -219 0
-150 -220 0
-151 -221 0
-152 -222 0
-153 -223 0
-154 -224 0
-148 -239 0
-149 -240 0
-150 -241 0
-151 -242 0
-152 -243 0
-153 -244 0
-154 -245 0
-155 -162 0
-156 -163 0
-157 -164 0
-158 -165 0
-159 -166 0
-160 -167 0
-161 -168 0
-155 -169 0
-156 -170 0
-157 -171 0
-158 -172 0
-159 -173 0
-160 -174 0
-161 -175 0
-155 -183 0
-156 -184 0
-157 -185 0
-158 -186 0
-159 -187 0
-160 -188 0
-161 -189 0
-155 -204 0
-156 -205 0
-157 -206 0
-158 -207 0
-159 -208 0
-160 -209 0
-161 -210 0
-155 -218 0
-156 -219 0
-157 -220 0
-158 -221 0
-159 -222 0
-160 -223 0
-161 -224 0
-155 -232 0
-156 -233 0
-157 -234 0
-158 -235 0
-159 -236 0
-160 -237 0
-161 -238 0
-162 -169 0
-163 -170 0
-164 -171 0
-165 -172 0
-166 -173 0
-167 -174 0
-168 -175 0
-162 -190 0
-163 -191 0
-164 -192 0
-165 -193 0
-166 -194 0
-167 -195 0
-168 -196 0
-162 -197 0
-163 -198 0
-164 -199 0
-165 -200 0
-166 -201 0
-167 -202 0
-168 -203 0
-162 -218 0
-163 -219 0
-164 -220 0
-165 -221 0
-166 -222 0
-167 -223 0
-168 -224 0
-162 -225 0
-163 -226 0
-164 -227 0
-165 -228 0
-166 -229 0
-167 -230 0
-168 -231 0
-162 -239 0
-163 -240 0
-164 -241 0
-165 -242 0
-166 -243 0
-167 -244 0
-168 -245 0
-169 -197 0
-170 -198 0
-171 -199 0
-172 -200 0
-173 -201 0
-174 -202 0
-175 -203 0
-169 -204 0
-170 -205 0
-171 -206 0
-172 -207 0
-173 -208 0
-174 -209 0
-175 -210 0
-169 -218 0
-170 -219 0
-171 -220 0
-172 -221 0
-173 -222 0
-174 -223 0
-175 -224 0
-169 -239 0
-170 -240 0
-171 -241 0
-172 -242 0
-173 -243 0
-174 -244 0
-175 -245 0
-176 -183 0
-177 -184 0
-178 -185 0
-179 -186 0
-180 -187 0
-181 -188 0
-182 -189 0
-176 -190 0
-177 -191 0
-178 -192 0
-179 -193 0
-180 -194 0
-181 -195 0
-182 -196 0
-176 -211 0
-177 -212 0
-178 -213 0
-179 -214 0
-180 -215 0
-181 -216 0
-182 -217 0
-176 -239 0
-177 -240 0
-178 -241 0
-179 -242 0
-180 -243 0
-181 -244 0
-182 -245 0
-183 -197 0
-184 -198 0
-185 -199 0
-186 -200 0
-187 -201 0
-188 -202 0
-189 -203 0
-183 -211 0
-184 -212 0
-185 -213 0
-186 -214 0
-187 -215 0
-188 -216 0
-189 -217 0
-190 -204 0
-191 -205 0
-192 -206 0
-193 -207 0
-194 -208 0
-195 -209 0
-196 -210 0
-190 -211 0
-191 -212 0
-192 -213 0
-193 -214 0
-194 -215 0
-195 -216 0
-196 -217 0
-197 -204 0
-198 -205 0
-199 -206 0
-200 -207 0
-201 -208 0
-202 -209 0
-203 -210 0
-197 -211 0
-198 -212 0
-199 -213 0
-200 -214 0
-201 -215 0
-202 -216 0
-203 -217 0
-197 -218 0
-198 -219 0
-199 -220 0
-200 -221 0
-201 -222 0
-202 -223 0
-203 -224 0
-197 -239 0
-198 -240 0
-199 -241 0
-200 -242 0
-201 -243 0
-202 -244 0
-203 -245 0
-204 -211 0
-205 -212 0
-206 -213 0
-207 -214 0
-208 -215 0
-209 -216 0
-210 -217 0
-204 -225 0
-205 -226 0
-206 -227 0
-207 -228 0
-208 -229 0
-209 -230 0
-210 -231 0
-204 -232 0
-205 -233 0
-206 -234 0
-207 -235 0
-208 -236 0
-209 -237 0
-210 -238 0
-211 -218 0
-212 -219 0
-213 -220 0
-214 -221 0
-215 -222 0
-216 -223 0
-217 -224 0
-211 -225 0
-212 -226 0
-213 -227 0
-214 -228 0
-215 -229 0
-216 -230 0
-217 -231 0
-218 -225 0
-219 -226 0
-220 -227 0
-221 -228 0
-222 -229 0
-223 -230 0
-224 -231 0
-218 -232 0
-219 -233 0
-220 -234 0
-221 -235 0
-222 -236 0
-223 -237 0
-224 -238 0
